NAME : sample3
TYPE : TSP
DIMENSION : 20
EDGE_WEIGHT_TYPE : EUC_2D
NODE_COORD_SECTION
	0	15,28	-3,04
	1	16,78	11,73
	2	9,23	-3,03
	3	-10,69	4,04
	4	4,03	5,16
	5	-13,51	-18,1
	6	11,05	-10,96
	7	12	-13,65
	8	14,5	12,57
	9	-10,26	-17,61
	10	18,53	10,4
	11	2,87	15,55
	12	6,88	-2,02
	13	-7,9	-1,42
	14	8,42	18,13
	15	15,06	8,59
	16	-9,01	0,3
	17	18,92	18,3
	18	-0,42	-6,73
	19	7,01	10,53
EOF